% Logging successfully configured
%%%mzn-stat: initTime=0.050892663
%%%mzn-stat: objective=444
%%%mzn-stat: nodes=984
%%%mzn-stat: restarts=0
%%%mzn-stat: peakDepth=597
%%%mzn-stat: solveTime=0.030424778
%%%mzn-stat: variables=1146
%%%mzn-stat: propagators=2064
%%%mzn-stat: failures=228
%%%mzn-stat: propagations=85062
%%%mzn-stat: nogoods=228
%%%mzn-stat: numAtomicConstraintsPropagated=0
%%%mzn-stat: circuitNumber1226PropagationsThatFoundConflict=96
%%%mzn-stat: circuitNumber1226TotalFixedEdgesAtConflict=4180
%%%mzn-stat: circuitNumber1226NumberOfConflicts=96
%%%mzn-stat: circuitNumber1226PropagationsThatPruned=85
%%%mzn-stat: circuitNumber1226PropagationsTotal=550
%%%mzn-stat: AverageConflictSize=7.723684210526316
%%%mzn-stat: NumUnitNogoodsLearned=0
%%%mzn-stat: AverageLearnedNogoodLength=19.62280701754386
%%%mzn-stat: AverageBacktrackAmount=0
%%%mzn-stat: AverageLbd=12.635964912280702
%%%mzn-stat: 2AutonomousSearchNumBackupCalled=557
%%%mzn-stat: 2AutonomousSearchNumPredicatesRemoved=0
%%%mzn-stat: 2AutonomousSearchNumCalls=558
%%%mzn-stat: 2AutonomousSearchNumPredicatesAdded=1178
%%%mzn-stat: 2AutonomousSearchAverageSizeOfHeap=2.111111111111111
%%%mzn-stat: 2AutonomousSearchNumAssignedPredicatesEncountered=1178
%%%mzn-stat-end
maxleg = 444;
succ = array1d(1..50,[4, 6, 5, 16, 7, 8, 9, 15, 12, 2, 10, 13, 18, 1, 14, 20, 28, 11, 23, 21, 22, 25, 24, 26, 29, 44, 19, 32, 31, 3, 38, 48, 17, 35, 36, 46, 30, 41, 42, 27, 47, 45, 37, 50, 34, 40, 33, 39, 43, 49]);
% time elapsed: 10.59 s
----------
%%%mzn-stat: initTime=0.050892663
%%%mzn-stat: objective=433
%%%mzn-stat: nodes=1718
%%%mzn-stat: restarts=0
%%%mzn-stat: peakDepth=597
%%%mzn-stat: solveTime=0.045505669
%%%mzn-stat: variables=1146
%%%mzn-stat: propagators=2064
%%%mzn-stat: failures=310
%%%mzn-stat: propagations=118335
%%%mzn-stat: nogoods=310
%%%mzn-stat: numAtomicConstraintsPropagated=0
%%%mzn-stat: circuitNumber1226PropagationsThatFoundConflict=100
%%%mzn-stat: circuitNumber1226TotalFixedEdgesAtConflict=4355
%%%mzn-stat: circuitNumber1226NumberOfConflicts=100
%%%mzn-stat: circuitNumber1226PropagationsThatPruned=118
%%%mzn-stat: circuitNumber1226PropagationsTotal=770
%%%mzn-stat: AverageConflictSize=6.848387096774194
%%%mzn-stat: NumUnitNogoodsLearned=0
%%%mzn-stat: AverageLearnedNogoodLength=20.774193548387096
%%%mzn-stat: AverageBacktrackAmount=0
%%%mzn-stat: AverageLbd=13.164516129032258
%%%mzn-stat: 2AutonomousSearchNumBackupCalled=1109
%%%mzn-stat: 2AutonomousSearchNumPredicatesRemoved=0
%%%mzn-stat: 2AutonomousSearchNumCalls=1111
%%%mzn-stat: 2AutonomousSearchNumPredicatesAdded=2326
%%%mzn-stat: 2AutonomousSearchAverageSizeOfHeap=2.2556255625562556
%%%mzn-stat: 2AutonomousSearchNumAssignedPredicatesEncountered=2506
%%%mzn-stat-end
maxleg = 433;
succ = array1d(1..50,[4, 6, 5, 16, 7, 8, 9, 15, 12, 2, 10, 13, 18, 1, 17, 20, 28, 11, 23, 21, 22, 25, 24, 26, 29, 44, 19, 32, 30, 34, 14, 48, 38, 35, 36, 46, 3, 31, 45, 27, 33, 47, 37, 50, 42, 40, 41, 39, 43, 49]);
% time elapsed: 10.61 s
----------
%%%mzn-stat: initTime=0.050892663
%%%mzn-stat: objective=421
%%%mzn-stat: nodes=2306
%%%mzn-stat: restarts=0
%%%mzn-stat: peakDepth=597
%%%mzn-stat: solveTime=0.047061015
%%%mzn-stat: variables=1146
%%%mzn-stat: propagators=2064
%%%mzn-stat: failures=311
%%%mzn-stat: propagations=122164
%%%mzn-stat: nogoods=311
%%%mzn-stat: numAtomicConstraintsPropagated=0
%%%mzn-stat: circuitNumber1226PropagationsThatFoundConflict=100
%%%mzn-stat: circuitNumber1226TotalFixedEdgesAtConflict=4355
%%%mzn-stat: circuitNumber1226NumberOfConflicts=100
%%%mzn-stat: circuitNumber1226PropagationsThatPruned=118
%%%mzn-stat: circuitNumber1226PropagationsTotal=809
%%%mzn-stat: AverageConflictSize=6.877813504823151
%%%mzn-stat: NumUnitNogoodsLearned=0
%%%mzn-stat: AverageLearnedNogoodLength=20.826366559485532
%%%mzn-stat: AverageBacktrackAmount=0
%%%mzn-stat: AverageLbd=13.163987138263666
%%%mzn-stat: 2AutonomousSearchNumBackupCalled=1656
%%%mzn-stat: 2AutonomousSearchNumPredicatesRemoved=0
%%%mzn-stat: 2AutonomousSearchNumCalls=1659
%%%mzn-stat: 2AutonomousSearchNumPredicatesAdded=2529
%%%mzn-stat: 2AutonomousSearchAverageSizeOfHeap=2.3110307414104883
%%%mzn-stat: 2AutonomousSearchNumAssignedPredicatesEncountered=3834
%%%mzn-stat-end
maxleg = 421;
succ = array1d(1..50,[4, 6, 5, 16, 7, 8, 9, 15, 12, 11, 2, 13, 18, 1, 17, 20, 28, 10, 23, 21, 22, 25, 24, 26, 29, 44, 19, 32, 30, 34, 14, 48, 38, 35, 36, 46, 3, 31, 45, 27, 33, 47, 37, 50, 42, 40, 41, 39, 43, 49]);
% time elapsed: 10.61 s
----------
%%%mzn-stat: initTime=0.050892663
%%%mzn-stat: objective=396
%%%mzn-stat: nodes=2904
%%%mzn-stat: restarts=0
%%%mzn-stat: peakDepth=597
%%%mzn-stat: solveTime=0.050207775
%%%mzn-stat: variables=1146
%%%mzn-stat: propagators=2064
%%%mzn-stat: failures=322
%%%mzn-stat: propagations=129515
%%%mzn-stat: nogoods=322
%%%mzn-stat: numAtomicConstraintsPropagated=0
%%%mzn-stat: circuitNumber1226PropagationsThatFoundConflict=106
%%%mzn-stat: circuitNumber1226TotalFixedEdgesAtConflict=4626
%%%mzn-stat: circuitNumber1226NumberOfConflicts=106
%%%mzn-stat: circuitNumber1226PropagationsThatPruned=121
%%%mzn-stat: circuitNumber1226PropagationsTotal=872
%%%mzn-stat: AverageConflictSize=7.214285714285714
%%%mzn-stat: NumUnitNogoodsLearned=0
%%%mzn-stat: AverageLearnedNogoodLength=20.993788819875775
%%%mzn-stat: AverageBacktrackAmount=0
%%%mzn-stat: AverageLbd=13.434782608695652
%%%mzn-stat: 2AutonomousSearchNumBackupCalled=2194
%%%mzn-stat: 2AutonomousSearchNumPredicatesRemoved=0
%%%mzn-stat: 2AutonomousSearchNumCalls=2198
%%%mzn-stat: 2AutonomousSearchNumPredicatesAdded=2777
%%%mzn-stat: 2AutonomousSearchAverageSizeOfHeap=2.35213830755232
%%%mzn-stat: 2AutonomousSearchNumAssignedPredicatesEncountered=5170
%%%mzn-stat-end
maxleg = 396;
succ = array1d(1..50,[4, 6, 5, 16, 7, 8, 9, 15, 12, 11, 2, 13, 18, 1, 17, 20, 28, 10, 26, 21, 22, 25, 24, 32, 29, 23, 19, 33, 30, 3, 14, 48, 38, 35, 36, 46, 27, 45, 42, 43, 31, 47, 49, 37, 34, 40, 41, 39, 50, 44]);
% time elapsed: 10.61 s
----------
%%%mzn-stat: initTime=0.050892663
%%%mzn-stat: objective=391
%%%mzn-stat: nodes=3492
%%%mzn-stat: restarts=0
%%%mzn-stat: peakDepth=597
%%%mzn-stat: solveTime=0.053849735
%%%mzn-stat: variables=1146
%%%mzn-stat: propagators=2064
%%%mzn-stat: failures=331
%%%mzn-stat: propagations=136529
%%%mzn-stat: nogoods=331
%%%mzn-stat: numAtomicConstraintsPropagated=0
%%%mzn-stat: circuitNumber1226PropagationsThatFoundConflict=108
%%%mzn-stat: circuitNumber1226TotalFixedEdgesAtConflict=4711
%%%mzn-stat: circuitNumber1226NumberOfConflicts=108
%%%mzn-stat: circuitNumber1226PropagationsThatPruned=129
%%%mzn-stat: circuitNumber1226PropagationsTotal=936
%%%mzn-stat: AverageConflictSize=7.211480362537764
%%%mzn-stat: NumUnitNogoodsLearned=0
%%%mzn-stat: AverageLearnedNogoodLength=21.268882175226587
%%%mzn-stat: AverageBacktrackAmount=0
%%%mzn-stat: AverageLbd=13.610271903323262
%%%mzn-stat: 2AutonomousSearchNumBackupCalled=2721
%%%mzn-stat: 2AutonomousSearchNumPredicatesRemoved=0
%%%mzn-stat: 2AutonomousSearchNumCalls=2726
%%%mzn-stat: 2AutonomousSearchNumPredicatesAdded=3194
%%%mzn-stat: 2AutonomousSearchAverageSizeOfHeap=2.399486426999266
%%%mzn-stat: 2AutonomousSearchNumAssignedPredicatesEncountered=6541
%%%mzn-stat-end
maxleg = 391;
succ = array1d(1..50,[4, 6, 5, 16, 7, 8, 9, 15, 12, 11, 2, 13, 18, 1, 17, 20, 28, 19, 10, 21, 22, 25, 24, 32, 29, 23, 30, 33, 31, 3, 38, 42, 41, 35, 36, 46, 27, 39, 48, 43, 47, 45, 49, 37, 34, 40, 14, 26, 50, 44]);
% time elapsed: 10.62 s
----------
%%%mzn-stat: initTime=0.050892663
%%%mzn-stat: objective=381
%%%mzn-stat: nodes=4060
%%%mzn-stat: restarts=0
%%%mzn-stat: peakDepth=597
%%%mzn-stat: solveTime=0.055843801
%%%mzn-stat: variables=1146
%%%mzn-stat: propagators=2064
%%%mzn-stat: failures=335
%%%mzn-stat: propagations=141244
%%%mzn-stat: nogoods=335
%%%mzn-stat: numAtomicConstraintsPropagated=0
%%%mzn-stat: circuitNumber1226PropagationsThatFoundConflict=109
%%%mzn-stat: circuitNumber1226TotalFixedEdgesAtConflict=4757
%%%mzn-stat: circuitNumber1226NumberOfConflicts=109
%%%mzn-stat: circuitNumber1226PropagationsThatPruned=131
%%%mzn-stat: circuitNumber1226PropagationsTotal=983
%%%mzn-stat: AverageConflictSize=7.1940298507462686
%%%mzn-stat: NumUnitNogoodsLearned=0
%%%mzn-stat: AverageLearnedNogoodLength=21.22686567164179
%%%mzn-stat: AverageBacktrackAmount=0
%%%mzn-stat: AverageLbd=13.605970149253732
%%%mzn-stat: 2AutonomousSearchNumBackupCalled=3243
%%%mzn-stat: 2AutonomousSearchNumPredicatesRemoved=0
%%%mzn-stat: 2AutonomousSearchNumCalls=3249
%%%mzn-stat: 2AutonomousSearchNumPredicatesAdded=3350
%%%mzn-stat: 2AutonomousSearchAverageSizeOfHeap=2.4392120652508464
%%%mzn-stat: 2AutonomousSearchNumAssignedPredicatesEncountered=7925
%%%mzn-stat-end
maxleg = 381;
succ = array1d(1..50,[4, 6, 5, 16, 7, 8, 9, 15, 12, 11, 2, 13, 18, 1, 17, 20, 28, 19, 10, 21, 22, 25, 24, 32, 29, 23, 30, 33, 31, 3, 38, 42, 41, 35, 36, 46, 40, 39, 48, 43, 47, 45, 49, 27, 34, 37, 14, 26, 50, 44]);
% time elapsed: 10.62 s
----------
%%%mzn-stat: initTime=0.050892663
%%%mzn-stat: objective=367
%%%mzn-stat: nodes=4586
%%%mzn-stat: restarts=0
%%%mzn-stat: peakDepth=597
%%%mzn-stat: solveTime=0.057736522
%%%mzn-stat: variables=1146
%%%mzn-stat: propagators=2064
%%%mzn-stat: failures=337
%%%mzn-stat: propagations=145550
%%%mzn-stat: nogoods=337
%%%mzn-stat: numAtomicConstraintsPropagated=0
%%%mzn-stat: circuitNumber1226PropagationsThatFoundConflict=110
%%%mzn-stat: circuitNumber1226TotalFixedEdgesAtConflict=4797
%%%mzn-stat: circuitNumber1226NumberOfConflicts=110
%%%mzn-stat: circuitNumber1226PropagationsThatPruned=132
%%%mzn-stat: circuitNumber1226PropagationsTotal=1024
%%%mzn-stat: AverageConflictSize=7.198813056379822
%%%mzn-stat: NumUnitNogoodsLearned=0
%%%mzn-stat: AverageLearnedNogoodLength=21.270029673590503
%%%mzn-stat: AverageBacktrackAmount=0
%%%mzn-stat: AverageLbd=13.658753709198812
%%%mzn-stat: 2AutonomousSearchNumBackupCalled=3728
%%%mzn-stat: 2AutonomousSearchNumPredicatesRemoved=0
%%%mzn-stat: 2AutonomousSearchNumCalls=3735
%%%mzn-stat: 2AutonomousSearchNumPredicatesAdded=3503
%%%mzn-stat: 2AutonomousSearchAverageSizeOfHeap=2.495850066934404
%%%mzn-stat: 2AutonomousSearchNumAssignedPredicatesEncountered=9322
%%%mzn-stat-end
maxleg = 367;
succ = array1d(1..50,[14, 6, 5, 16, 7, 8, 9, 15, 12, 11, 2, 13, 18, 21, 17, 1, 28, 19, 10, 29, 20, 4, 24, 32, 22, 23, 30, 33, 31, 3, 38, 42, 41, 35, 36, 46, 40, 39, 48, 43, 47, 45, 49, 27, 34, 37, 25, 26, 50, 44]);
% time elapsed: 10.62 s
----------
%%%mzn-stat: initTime=0.050892663
%%%mzn-stat: objective=362
%%%mzn-stat: nodes=5115
%%%mzn-stat: restarts=0
%%%mzn-stat: peakDepth=597
%%%mzn-stat: solveTime=0.060168455
%%%mzn-stat: variables=1146
%%%mzn-stat: propagators=2064
%%%mzn-stat: failures=339
%%%mzn-stat: propagations=149705
%%%mzn-stat: nogoods=339
%%%mzn-stat: numAtomicConstraintsPropagated=0
%%%mzn-stat: circuitNumber1226PropagationsThatFoundConflict=110
%%%mzn-stat: circuitNumber1226TotalFixedEdgesAtConflict=4797
%%%mzn-stat: circuitNumber1226NumberOfConflicts=110
%%%mzn-stat: circuitNumber1226PropagationsThatPruned=135
%%%mzn-stat: circuitNumber1226PropagationsTotal=1066
%%%mzn-stat: AverageConflictSize=7.191740412979351
%%%mzn-stat: NumUnitNogoodsLearned=0
%%%mzn-stat: AverageLearnedNogoodLength=21.29793510324484
%%%mzn-stat: AverageBacktrackAmount=0
%%%mzn-stat: AverageLbd=13.696165191740413
%%%mzn-stat: 2AutonomousSearchNumBackupCalled=4217
%%%mzn-stat: 2AutonomousSearchNumPredicatesRemoved=0
%%%mzn-stat: 2AutonomousSearchNumCalls=4225
%%%mzn-stat: 2AutonomousSearchNumPredicatesAdded=3627
%%%mzn-stat: 2AutonomousSearchAverageSizeOfHeap=2.5377514792899407
%%%mzn-stat: 2AutonomousSearchNumAssignedPredicatesEncountered=10722
%%%mzn-stat-end
maxleg = 362;
succ = array1d(1..50,[14, 6, 5, 16, 7, 8, 9, 15, 12, 11, 2, 13, 18, 21, 17, 1, 28, 19, 10, 29, 20, 4, 26, 32, 22, 48, 30, 33, 31, 3, 38, 23, 41, 35, 36, 46, 40, 42, 45, 43, 47, 24, 49, 27, 34, 37, 25, 39, 50, 44]);
% time elapsed: 10.63 s
----------
%%%mzn-stat: initTime=0.050892663
%%%mzn-stat: objective=339
%%%mzn-stat: nodes=12967
%%%mzn-stat: restarts=0
%%%mzn-stat: peakDepth=597
%%%mzn-stat: solveTime=1.345076714
%%%mzn-stat: variables=1146
%%%mzn-stat: propagators=2064
%%%mzn-stat: failures=5648
%%%mzn-stat: propagations=1974699
%%%mzn-stat: nogoods=5648
%%%mzn-stat: numAtomicConstraintsPropagated=0
%%%mzn-stat: circuitNumber1226PropagationsThatFoundConflict=3517
%%%mzn-stat: circuitNumber1226TotalFixedEdgesAtConflict=155896
%%%mzn-stat: circuitNumber1226NumberOfConflicts=3517
%%%mzn-stat: circuitNumber1226PropagationsThatPruned=1948
%%%mzn-stat: circuitNumber1226PropagationsTotal=12691
%%%mzn-stat: AverageConflictSize=25.198654390934845
%%%mzn-stat: NumUnitNogoodsLearned=0
%%%mzn-stat: AverageLearnedNogoodLength=42.100212464589234
%%%mzn-stat: AverageBacktrackAmount=0
%%%mzn-stat: AverageLbd=25.18271954674221
%%%mzn-stat: 2AutonomousSearchNumBackupCalled=4694
%%%mzn-stat: 2AutonomousSearchNumPredicatesRemoved=0
%%%mzn-stat: 2AutonomousSearchNumCalls=4703
%%%mzn-stat: 2AutonomousSearchNumPredicatesAdded=4911
%%%mzn-stat: 2AutonomousSearchAverageSizeOfHeap=2.625558154369551
%%%mzn-stat: 2AutonomousSearchNumAssignedPredicatesEncountered=12348
%%%mzn-stat-end
maxleg = 339;
succ = array1d(1..50,[14, 6, 5, 16, 7, 8, 9, 15, 12, 11, 2, 13, 18, 21, 17, 1, 28, 19, 27, 29, 20, 4, 10, 32, 22, 23, 44, 33, 30, 3, 25, 39, 38, 45, 34, 35, 40, 41, 48, 43, 47, 24, 46, 50, 42, 36, 31, 26, 37, 49]);
% time elapsed: 11.91 s
----------
%%%mzn-stat: initTime=0.050892663
%%%mzn-stat: objective=337
%%%mzn-stat: nodes=13471
%%%mzn-stat: restarts=0
%%%mzn-stat: peakDepth=597
%%%mzn-stat: solveTime=1.347972238
%%%mzn-stat: variables=1146
%%%mzn-stat: propagators=2064
%%%mzn-stat: failures=5654
%%%mzn-stat: propagations=1980376
%%%mzn-stat: nogoods=5654
%%%mzn-stat: numAtomicConstraintsPropagated=0
%%%mzn-stat: circuitNumber1226PropagationsThatFoundConflict=3518
%%%mzn-stat: circuitNumber1226TotalFixedEdgesAtConflict=155936
%%%mzn-stat: circuitNumber1226NumberOfConflicts=3518
%%%mzn-stat: circuitNumber1226PropagationsThatPruned=1949
%%%mzn-stat: circuitNumber1226PropagationsTotal=12735
%%%mzn-stat: AverageConflictSize=25.186770428015564
%%%mzn-stat: NumUnitNogoodsLearned=0
%%%mzn-stat: AverageLearnedNogoodLength=42.07605235231694
%%%mzn-stat: AverageBacktrackAmount=0
%%%mzn-stat: AverageLbd=25.166607711354793
%%%mzn-stat: 2AutonomousSearchNumBackupCalled=5153
%%%mzn-stat: 2AutonomousSearchNumPredicatesRemoved=0
%%%mzn-stat: 2AutonomousSearchNumCalls=5163
%%%mzn-stat: 2AutonomousSearchNumPredicatesAdded=5213
%%%mzn-stat: 2AutonomousSearchAverageSizeOfHeap=2.7112144102266122
%%%mzn-stat: 2AutonomousSearchNumAssignedPredicatesEncountered=13998
%%%mzn-stat-end
maxleg = 337;
succ = array1d(1..50,[14, 6, 5, 16, 7, 8, 9, 15, 12, 11, 2, 13, 20, 21, 17, 1, 28, 19, 27, 29, 22, 25, 10, 32, 31, 23, 30, 33, 35, 3, 38, 48, 41, 36, 4, 46, 40, 39, 24, 43, 47, 45, 49, 18, 34, 37, 42, 26, 50, 44]);
% time elapsed: 11.92 s
----------
%%%mzn-stat: initTime=0.050892663
%%%mzn-stat: objective=335
%%%mzn-stat: nodes=13978
%%%mzn-stat: restarts=0
%%%mzn-stat: peakDepth=597
%%%mzn-stat: solveTime=1.3494903520000001
%%%mzn-stat: variables=1146
%%%mzn-stat: propagators=2064
%%%mzn-stat: failures=5654
%%%mzn-stat: propagations=1984239
%%%mzn-stat: nogoods=5654
%%%mzn-stat: numAtomicConstraintsPropagated=0
%%%mzn-stat: circuitNumber1226PropagationsThatFoundConflict=3518
%%%mzn-stat: circuitNumber1226TotalFixedEdgesAtConflict=155936
%%%mzn-stat: circuitNumber1226NumberOfConflicts=3518
%%%mzn-stat: circuitNumber1226PropagationsThatPruned=1950
%%%mzn-stat: circuitNumber1226PropagationsTotal=12771
%%%mzn-stat: AverageConflictSize=25.186770428015564
%%%mzn-stat: NumUnitNogoodsLearned=0
%%%mzn-stat: AverageLearnedNogoodLength=42.07605235231694
%%%mzn-stat: AverageBacktrackAmount=0
%%%mzn-stat: AverageLbd=25.166607711354793
%%%mzn-stat: 2AutonomousSearchNumBackupCalled=5624
%%%mzn-stat: 2AutonomousSearchNumPredicatesRemoved=0
%%%mzn-stat: 2AutonomousSearchNumCalls=5635
%%%mzn-stat: 2AutonomousSearchNumPredicatesAdded=5213
%%%mzn-stat: 2AutonomousSearchAverageSizeOfHeap=2.776929902395741
%%%mzn-stat: 2AutonomousSearchNumAssignedPredicatesEncountered=15648
%%%mzn-stat-end
maxleg = 335;
succ = array1d(1..50,[14, 6, 5, 16, 7, 8, 9, 15, 12, 11, 2, 13, 20, 21, 17, 1, 28, 19, 27, 29, 22, 25, 10, 32, 31, 23, 30, 33, 35, 3, 38, 48, 41, 36, 4, 46, 40, 39, 24, 43, 47, 45, 50, 18, 34, 49, 42, 26, 37, 44]);
% time elapsed: 11.92 s
----------
%%%mzn-stat: initTime=0.050892663
%%%mzn-stat: objective=330
%%%mzn-stat: nodes=14478
%%%mzn-stat: restarts=0
%%%mzn-stat: peakDepth=597
%%%mzn-stat: solveTime=1.351195465
%%%mzn-stat: variables=1146
%%%mzn-stat: propagators=2064
%%%mzn-stat: failures=5656
%%%mzn-stat: propagations=1988914
%%%mzn-stat: nogoods=5656
%%%mzn-stat: numAtomicConstraintsPropagated=0
%%%mzn-stat: circuitNumber1226PropagationsThatFoundConflict=3518
%%%mzn-stat: circuitNumber1226TotalFixedEdgesAtConflict=155936
%%%mzn-stat: circuitNumber1226NumberOfConflicts=3518
%%%mzn-stat: circuitNumber1226PropagationsThatPruned=1954
%%%mzn-stat: circuitNumber1226PropagationsTotal=12813
%%%mzn-stat: AverageConflictSize=25.178571428571427
%%%mzn-stat: NumUnitNogoodsLearned=0
%%%mzn-stat: AverageLearnedNogoodLength=42.064710042432814
%%%mzn-stat: AverageBacktrackAmount=0
%%%mzn-stat: AverageLbd=25.15983026874116
%%%mzn-stat: 2AutonomousSearchNumBackupCalled=6084
%%%mzn-stat: 2AutonomousSearchNumPredicatesRemoved=0
%%%mzn-stat: 2AutonomousSearchNumCalls=6096
%%%mzn-stat: 2AutonomousSearchNumPredicatesAdded=5291
%%%mzn-stat: 2AutonomousSearchAverageSizeOfHeap=2.8375984251968505
%%%mzn-stat: 2AutonomousSearchNumAssignedPredicatesEncountered=17298
%%%mzn-stat-end
maxleg = 330;
succ = array1d(1..50,[14, 6, 5, 16, 7, 8, 9, 15, 12, 11, 2, 13, 20, 21, 17, 1, 28, 19, 27, 29, 22, 25, 10, 32, 31, 23, 30, 33, 35, 3, 38, 48, 41, 36, 4, 46, 40, 39, 24, 50, 47, 45, 37, 18, 34, 49, 42, 26, 43, 44]);
% time elapsed: 11.92 s
----------
%%%mzn-stat: initTime=0.050892663
%%%mzn-stat: objective=329
%%%mzn-stat: nodes=14962
%%%mzn-stat: restarts=0
%%%mzn-stat: peakDepth=597
%%%mzn-stat: solveTime=1.353014145
%%%mzn-stat: variables=1146
%%%mzn-stat: propagators=2064
%%%mzn-stat: failures=5659
%%%mzn-stat: propagations=1993632
%%%mzn-stat: nogoods=5659
%%%mzn-stat: numAtomicConstraintsPropagated=0
%%%mzn-stat: circuitNumber1226PropagationsThatFoundConflict=3518
%%%mzn-stat: circuitNumber1226TotalFixedEdgesAtConflict=155936
%%%mzn-stat: circuitNumber1226NumberOfConflicts=3518
%%%mzn-stat: circuitNumber1226PropagationsThatPruned=1958
%%%mzn-stat: circuitNumber1226PropagationsTotal=12855
%%%mzn-stat: AverageConflictSize=25.166283795723626
%%%mzn-stat: NumUnitNogoodsLearned=0
%%%mzn-stat: AverageLearnedNogoodLength=42.04841844848913
%%%mzn-stat: AverageBacktrackAmount=0
%%%mzn-stat: AverageLbd=25.149673087117865
%%%mzn-stat: 2AutonomousSearchNumBackupCalled=6528
%%%mzn-stat: 2AutonomousSearchNumPredicatesRemoved=0
%%%mzn-stat: 2AutonomousSearchNumCalls=6541
%%%mzn-stat: 2AutonomousSearchNumPredicatesAdded=5465
%%%mzn-stat: 2AutonomousSearchAverageSizeOfHeap=2.904754624675126
%%%mzn-stat: 2AutonomousSearchNumAssignedPredicatesEncountered=19000
%%%mzn-stat-end
maxleg = 329;
succ = array1d(1..50,[14, 6, 5, 16, 7, 8, 9, 15, 12, 11, 2, 13, 20, 21, 17, 1, 28, 19, 27, 29, 22, 25, 10, 32, 31, 23, 30, 33, 35, 37, 38, 48, 41, 36, 4, 46, 3, 39, 24, 50, 47, 45, 40, 18, 34, 49, 42, 26, 43, 44]);
% time elapsed: 11.93 s
----------
%%%mzn-stat: initTime=0.050892663
%%%mzn-stat: objective=324
%%%mzn-stat: nodes=15436
%%%mzn-stat: restarts=0
%%%mzn-stat: peakDepth=597
%%%mzn-stat: solveTime=1.3549038709999999
%%%mzn-stat: variables=1146
%%%mzn-stat: propagators=2064
%%%mzn-stat: failures=5660
%%%mzn-stat: propagations=1997840
%%%mzn-stat: nogoods=5660
%%%mzn-stat: numAtomicConstraintsPropagated=0
%%%mzn-stat: circuitNumber1226PropagationsThatFoundConflict=3519
%%%mzn-stat: circuitNumber1226TotalFixedEdgesAtConflict=155979
%%%mzn-stat: circuitNumber1226NumberOfConflicts=3519
%%%mzn-stat: circuitNumber1226PropagationsThatPruned=1962
%%%mzn-stat: circuitNumber1226PropagationsTotal=12895
%%%mzn-stat: AverageConflictSize=25.167137809187277
%%%mzn-stat: NumUnitNogoodsLearned=0
%%%mzn-stat: AverageLearnedNogoodLength=42.047349823321554
%%%mzn-stat: AverageBacktrackAmount=0
%%%mzn-stat: AverageLbd=25.14929328621908
%%%mzn-stat: 2AutonomousSearchNumBackupCalled=6966
%%%mzn-stat: 2AutonomousSearchNumPredicatesRemoved=0
%%%mzn-stat: 2AutonomousSearchNumCalls=6980
%%%mzn-stat: 2AutonomousSearchNumPredicatesAdded=5572
%%%mzn-stat: 2AutonomousSearchAverageSizeOfHeap=2.966189111747851
%%%mzn-stat: 2AutonomousSearchNumAssignedPredicatesEncountered=20704
%%%mzn-stat-end
maxleg = 324;
succ = array1d(1..50,[14, 6, 5, 16, 7, 8, 9, 15, 12, 11, 2, 13, 20, 21, 17, 1, 28, 19, 27, 29, 22, 25, 10, 32, 31, 23, 30, 33, 36, 37, 38, 48, 41, 35, 46, 4, 3, 39, 24, 50, 47, 45, 40, 18, 34, 49, 42, 26, 43, 44]);
% time elapsed: 11.93 s
----------
%%%mzn-stat: initTime=0.050892663
%%%mzn-stat: objective=315
%%%mzn-stat: nodes=15902
%%%mzn-stat: restarts=0
%%%mzn-stat: peakDepth=597
%%%mzn-stat: solveTime=1.35651429
%%%mzn-stat: variables=1146
%%%mzn-stat: propagators=2064
%%%mzn-stat: failures=5660
%%%mzn-stat: propagations=2001711
%%%mzn-stat: nogoods=5660
%%%mzn-stat: numAtomicConstraintsPropagated=0
%%%mzn-stat: circuitNumber1226PropagationsThatFoundConflict=3519
%%%mzn-stat: circuitNumber1226TotalFixedEdgesAtConflict=155979
%%%mzn-stat: circuitNumber1226NumberOfConflicts=3519
%%%mzn-stat: circuitNumber1226PropagationsThatPruned=1965
%%%mzn-stat: circuitNumber1226PropagationsTotal=12931
%%%mzn-stat: AverageConflictSize=25.167137809187277
%%%mzn-stat: NumUnitNogoodsLearned=0
%%%mzn-stat: AverageLearnedNogoodLength=42.047349823321554
%%%mzn-stat: AverageBacktrackAmount=0
%%%mzn-stat: AverageLbd=25.14929328621908
%%%mzn-stat: 2AutonomousSearchNumBackupCalled=7398
%%%mzn-stat: 2AutonomousSearchNumPredicatesRemoved=0
%%%mzn-stat: 2AutonomousSearchNumCalls=7413
%%%mzn-stat: 2AutonomousSearchNumPredicatesAdded=5572
%%%mzn-stat: 2AutonomousSearchAverageSizeOfHeap=3.0227977876703087
%%%mzn-stat: 2AutonomousSearchNumAssignedPredicatesEncountered=22408
%%%mzn-stat-end
maxleg = 315;
succ = array1d(1..50,[14, 6, 5, 16, 7, 8, 9, 15, 12, 11, 2, 13, 20, 21, 17, 1, 28, 19, 27, 29, 22, 25, 10, 32, 31, 23, 30, 33, 36, 37, 38, 48, 41, 35, 46, 4, 3, 39, 24, 50, 47, 45, 49, 18, 34, 43, 42, 26, 40, 44]);
% time elapsed: 11.93 s
----------
%%%mzn-stat: initTime=0.050892663
%%%mzn-stat: objective=295
%%%mzn-stat: nodes=16355
%%%mzn-stat: restarts=0
%%%mzn-stat: peakDepth=597
%%%mzn-stat: solveTime=1.358288791
%%%mzn-stat: variables=1146
%%%mzn-stat: propagators=2064
%%%mzn-stat: failures=5662
%%%mzn-stat: propagations=2006388
%%%mzn-stat: nogoods=5662
%%%mzn-stat: numAtomicConstraintsPropagated=0
%%%mzn-stat: circuitNumber1226PropagationsThatFoundConflict=3521
%%%mzn-stat: circuitNumber1226TotalFixedEdgesAtConflict=156071
%%%mzn-stat: circuitNumber1226NumberOfConflicts=3521
%%%mzn-stat: circuitNumber1226PropagationsThatPruned=1967
%%%mzn-stat: circuitNumber1226PropagationsTotal=12967
%%%mzn-stat: AverageConflictSize=25.16001412928294
%%%mzn-stat: NumUnitNogoodsLearned=0
%%%mzn-stat: AverageLearnedNogoodLength=42.04309431296362
%%%mzn-stat: AverageBacktrackAmount=0
%%%mzn-stat: AverageLbd=25.144471918050158
%%%mzn-stat: 2AutonomousSearchNumBackupCalled=7816
%%%mzn-stat: 2AutonomousSearchNumPredicatesRemoved=0
%%%mzn-stat: 2AutonomousSearchNumCalls=7832
%%%mzn-stat: 2AutonomousSearchNumPredicatesAdded=5898
%%%mzn-stat: 2AutonomousSearchAverageSizeOfHeap=3.0812053115423903
%%%mzn-stat: 2AutonomousSearchNumAssignedPredicatesEncountered=24132
%%%mzn-stat-end
maxleg = 295;
succ = array1d(1..50,[14, 6, 5, 16, 7, 8, 9, 15, 12, 11, 2, 13, 20, 21, 17, 1, 28, 19, 27, 29, 22, 25, 10, 32, 31, 23, 30, 33, 36, 37, 38, 48, 41, 35, 46, 4, 43, 39, 24, 50, 47, 45, 49, 18, 34, 40, 42, 26, 3, 44]);
% time elapsed: 11.93 s
----------
%%%mzn-stat: initTime=0.050892663
%%%mzn-stat: objective=293
%%%mzn-stat: nodes=16806
%%%mzn-stat: restarts=0
%%%mzn-stat: peakDepth=597
%%%mzn-stat: solveTime=1.360977844
%%%mzn-stat: variables=1146
%%%mzn-stat: propagators=2064
%%%mzn-stat: failures=5663
%%%mzn-stat: propagations=2010685
%%%mzn-stat: nogoods=5663
%%%mzn-stat: numAtomicConstraintsPropagated=0
%%%mzn-stat: circuitNumber1226PropagationsThatFoundConflict=3522
%%%mzn-stat: circuitNumber1226TotalFixedEdgesAtConflict=156115
%%%mzn-stat: circuitNumber1226NumberOfConflicts=3522
%%%mzn-stat: circuitNumber1226PropagationsThatPruned=1971
%%%mzn-stat: circuitNumber1226PropagationsTotal=13005
%%%mzn-stat: AverageConflictSize=25.160162458061098
%%%mzn-stat: NumUnitNogoodsLearned=0
%%%mzn-stat: AverageLearnedNogoodLength=42.04132085467067
%%%mzn-stat: AverageBacktrackAmount=0
%%%mzn-stat: AverageLbd=25.143386897404202
%%%mzn-stat: 2AutonomousSearchNumBackupCalled=8233
%%%mzn-stat: 2AutonomousSearchNumPredicatesRemoved=0
%%%mzn-stat: 2AutonomousSearchNumCalls=8250
%%%mzn-stat: 2AutonomousSearchNumPredicatesAdded=6001
%%%mzn-stat: 2AutonomousSearchAverageSizeOfHeap=3.1344242424242426
%%%mzn-stat: 2AutonomousSearchNumAssignedPredicatesEncountered=25859
%%%mzn-stat-end
maxleg = 293;
succ = array1d(1..50,[14, 6, 5, 25, 7, 8, 9, 15, 12, 11, 2, 13, 20, 16, 17, 21, 28, 19, 27, 1, 29, 31, 10, 32, 22, 23, 30, 33, 36, 37, 38, 48, 41, 35, 46, 4, 43, 39, 24, 50, 47, 45, 49, 18, 34, 40, 42, 26, 3, 44]);
% time elapsed: 11.94 s
----------
%%%mzn-stat: initTime=0.050892663
%%%mzn-stat: objective=285
%%%mzn-stat: nodes=17238
%%%mzn-stat: restarts=0
%%%mzn-stat: peakDepth=597
%%%mzn-stat: solveTime=1.362859118
%%%mzn-stat: variables=1146
%%%mzn-stat: propagators=2064
%%%mzn-stat: failures=5665
%%%mzn-stat: propagations=2015257
%%%mzn-stat: nogoods=5665
%%%mzn-stat: numAtomicConstraintsPropagated=0
%%%mzn-stat: circuitNumber1226PropagationsThatFoundConflict=3524
%%%mzn-stat: circuitNumber1226TotalFixedEdgesAtConflict=156199
%%%mzn-stat: circuitNumber1226NumberOfConflicts=3524
%%%mzn-stat: circuitNumber1226PropagationsThatPruned=1976
%%%mzn-stat: circuitNumber1226PropagationsTotal=13046
%%%mzn-stat: AverageConflictSize=25.159046778464255
%%%mzn-stat: NumUnitNogoodsLearned=0
%%%mzn-stat: AverageLearnedNogoodLength=42.03671668137687
%%%mzn-stat: AverageBacktrackAmount=0
%%%mzn-stat: AverageLbd=25.140688437775818
%%%mzn-stat: 2AutonomousSearchNumBackupCalled=8630
%%%mzn-stat: 2AutonomousSearchNumPredicatesRemoved=0
%%%mzn-stat: 2AutonomousSearchNumCalls=8648
%%%mzn-stat: 2AutonomousSearchNumPredicatesAdded=6143
%%%mzn-stat: 2AutonomousSearchAverageSizeOfHeap=3.1902173913043477
%%%mzn-stat: 2AutonomousSearchNumAssignedPredicatesEncountered=27589
%%%mzn-stat-end
maxleg = 285;
succ = array1d(1..50,[14, 6, 5, 25, 7, 8, 9, 17, 12, 11, 2, 13, 20, 16, 28, 21, 15, 19, 27, 1, 29, 31, 10, 32, 22, 23, 30, 33, 36, 37, 38, 48, 41, 35, 46, 4, 43, 39, 24, 50, 47, 45, 49, 18, 34, 40, 42, 26, 3, 44]);
% time elapsed: 11.94 s
----------
%%%mzn-stat: initTime=0.050892663
%%%mzn-stat: objective=282
%%%mzn-stat: nodes=17676
%%%mzn-stat: restarts=0
%%%mzn-stat: peakDepth=597
%%%mzn-stat: solveTime=1.365331514
%%%mzn-stat: variables=1146
%%%mzn-stat: propagators=2064
%%%mzn-stat: failures=5671
%%%mzn-stat: propagations=2021492
%%%mzn-stat: nogoods=5671
%%%mzn-stat: numAtomicConstraintsPropagated=0
%%%mzn-stat: circuitNumber1226PropagationsThatFoundConflict=3527
%%%mzn-stat: circuitNumber1226TotalFixedEdgesAtConflict=156330
%%%mzn-stat: circuitNumber1226NumberOfConflicts=3527
%%%mzn-stat: circuitNumber1226PropagationsThatPruned=1980
%%%mzn-stat: circuitNumber1226PropagationsTotal=13100
%%%mzn-stat: AverageConflictSize=25.141421266090635
%%%mzn-stat: NumUnitNogoodsLearned=0
%%%mzn-stat: AverageLearnedNogoodLength=42.01304884500088
%%%mzn-stat: AverageBacktrackAmount=0
%%%mzn-stat: AverageLbd=25.125374713454416
%%%mzn-stat: 2AutonomousSearchNumBackupCalled=9020
%%%mzn-stat: 2AutonomousSearchNumPredicatesRemoved=0
%%%mzn-stat: 2AutonomousSearchNumCalls=9039
%%%mzn-stat: 2AutonomousSearchNumPredicatesAdded=6547
%%%mzn-stat: 2AutonomousSearchAverageSizeOfHeap=3.244164177453258
%%%mzn-stat: 2AutonomousSearchNumAssignedPredicatesEncountered=29324
%%%mzn-stat-end
maxleg = 282;
succ = array1d(1..50,[14, 6, 5, 25, 7, 11, 9, 2, 12, 23, 10, 13, 20, 16, 17, 21, 8, 19, 27, 1, 29, 31, 26, 39, 22, 48, 30, 15, 36, 37, 38, 24, 28, 35, 46, 4, 43, 42, 45, 50, 33, 47, 49, 18, 34, 40, 41, 32, 3, 44]);
% time elapsed: 11.94 s
----------
%%%mzn-stat: initTime=0.050892663
%%%mzn-stat: objective=266
%%%mzn-stat: nodes=18154
%%%mzn-stat: restarts=0
%%%mzn-stat: peakDepth=597
%%%mzn-stat: solveTime=1.373498994
%%%mzn-stat: variables=1146
%%%mzn-stat: propagators=2064
%%%mzn-stat: failures=5709
%%%mzn-stat: propagations=2040618
%%%mzn-stat: nogoods=5709
%%%mzn-stat: numAtomicConstraintsPropagated=0
%%%mzn-stat: circuitNumber1226PropagationsThatFoundConflict=3541
%%%mzn-stat: circuitNumber1226TotalFixedEdgesAtConflict=156902
%%%mzn-stat: circuitNumber1226NumberOfConflicts=3541
%%%mzn-stat: circuitNumber1226PropagationsThatPruned=1990
%%%mzn-stat: circuitNumber1226PropagationsTotal=13203
%%%mzn-stat: AverageConflictSize=25.01050972149238
%%%mzn-stat: NumUnitNogoodsLearned=0
%%%mzn-stat: AverageLearnedNogoodLength=41.97460150639341
%%%mzn-stat: AverageBacktrackAmount=0
%%%mzn-stat: AverageLbd=25.02960238220354
%%%mzn-stat: 2AutonomousSearchNumBackupCalled=9401
%%%mzn-stat: 2AutonomousSearchNumPredicatesRemoved=0
%%%mzn-stat: 2AutonomousSearchNumCalls=9421
%%%mzn-stat: 2AutonomousSearchNumPredicatesAdded=7352
%%%mzn-stat: 2AutonomousSearchAverageSizeOfHeap=3.3019849272900967
%%%mzn-stat: 2AutonomousSearchNumAssignedPredicatesEncountered=31108
%%%mzn-stat-end
maxleg = 266;
succ = array1d(1..50,[14, 6, 5, 25, 7, 11, 9, 2, 12, 23, 10, 13, 20, 16, 17, 21, 8, 19, 27, 1, 29, 31, 26, 39, 22, 48, 40, 15, 30, 36, 38, 24, 28, 46, 4, 35, 50, 42, 45, 43, 33, 47, 49, 18, 34, 37, 41, 32, 3, 44]);
% time elapsed: 11.95 s
----------
%%%mzn-stat: initTime=0.050892663
%%%mzn-stat: objective=263
%%%mzn-stat: nodes=18545
%%%mzn-stat: restarts=0
%%%mzn-stat: peakDepth=597
%%%mzn-stat: solveTime=1.375158175
%%%mzn-stat: variables=1146
%%%mzn-stat: propagators=2064
%%%mzn-stat: failures=5709
%%%mzn-stat: propagations=2044553
%%%mzn-stat: nogoods=5709
%%%mzn-stat: numAtomicConstraintsPropagated=0
%%%mzn-stat: circuitNumber1226PropagationsThatFoundConflict=3541
%%%mzn-stat: circuitNumber1226TotalFixedEdgesAtConflict=156902
%%%mzn-stat: circuitNumber1226NumberOfConflicts=3541
%%%mzn-stat: circuitNumber1226PropagationsThatPruned=1994
%%%mzn-stat: circuitNumber1226PropagationsTotal=13237
%%%mzn-stat: AverageConflictSize=25.01050972149238
%%%mzn-stat: NumUnitNogoodsLearned=0
%%%mzn-stat: AverageLearnedNogoodLength=41.97460150639341
%%%mzn-stat: AverageBacktrackAmount=0
%%%mzn-stat: AverageLbd=25.02960238220354
%%%mzn-stat: 2AutonomousSearchNumBackupCalled=9761
%%%mzn-stat: 2AutonomousSearchNumPredicatesRemoved=0
%%%mzn-stat: 2AutonomousSearchNumCalls=9782
%%%mzn-stat: 2AutonomousSearchNumPredicatesAdded=7352
%%%mzn-stat: 2AutonomousSearchAverageSizeOfHeap=3.362502555714578
%%%mzn-stat: 2AutonomousSearchNumAssignedPredicatesEncountered=32892
%%%mzn-stat-end
maxleg = 263;
succ = array1d(1..50,[14, 6, 5, 25, 7, 11, 9, 2, 12, 23, 26, 13, 20, 16, 17, 21, 8, 19, 27, 1, 29, 31, 48, 39, 22, 10, 40, 15, 30, 36, 38, 24, 28, 46, 4, 35, 50, 42, 45, 43, 33, 47, 49, 18, 34, 37, 41, 32, 3, 44]);
% time elapsed: 11.96 s
----------
%%%mzn-stat: initTime=0.050892663
%%%mzn-stat: objective=250
%%%mzn-stat: nodes=19052
%%%mzn-stat: restarts=0
%%%mzn-stat: peakDepth=597
%%%mzn-stat: solveTime=1.403548429
%%%mzn-stat: variables=1146
%%%mzn-stat: propagators=2064
%%%mzn-stat: failures=5811
%%%mzn-stat: propagations=2090496
%%%mzn-stat: nogoods=5811
%%%mzn-stat: numAtomicConstraintsPropagated=0
%%%mzn-stat: circuitNumber1226PropagationsThatFoundConflict=3605
%%%mzn-stat: circuitNumber1226TotalFixedEdgesAtConflict=159942
%%%mzn-stat: circuitNumber1226NumberOfConflicts=3605
%%%mzn-stat: circuitNumber1226PropagationsThatPruned=2066
%%%mzn-stat: circuitNumber1226PropagationsTotal=13495
%%%mzn-stat: AverageConflictSize=25.106866288074343
%%%mzn-stat: NumUnitNogoodsLearned=0
%%%mzn-stat: AverageLearnedNogoodLength=42.06418860781277
%%%mzn-stat: AverageBacktrackAmount=0
%%%mzn-stat: AverageLbd=24.980554121493718
%%%mzn-stat: 2AutonomousSearchNumBackupCalled=10113
%%%mzn-stat: 2AutonomousSearchNumPredicatesRemoved=0
%%%mzn-stat: 2AutonomousSearchNumCalls=10135
%%%mzn-stat: 2AutonomousSearchNumPredicatesAdded=8300
%%%mzn-stat: 2AutonomousSearchAverageSizeOfHeap=3.428712382831771
%%%mzn-stat: 2AutonomousSearchNumAssignedPredicatesEncountered=34750
%%%mzn-stat-end
maxleg = 250;
succ = array1d(1..50,[14, 6, 5, 25, 9, 11, 3, 2, 12, 23, 26, 13, 20, 16, 17, 21, 8, 19, 27, 1, 29, 31, 48, 39, 22, 10, 40, 15, 30, 36, 38, 24, 28, 46, 4, 35, 50, 42, 45, 43, 33, 47, 49, 18, 34, 37, 41, 32, 7, 44]);
% time elapsed: 11.99 s
----------
=====ERROR=====
% time elapsed: 1561.98 s
